33D32945 STP File, STP Format Version 1.0

SECTION Comment
Name    "cc5-3u"
Creator "stpsolver"
Problem "Prize-Collecting Steiner Problem in Graphs"
END

SECTION Graph
Nodes 243
Edges 1215
E 2 1 1
E 3 1 1
E 3 2 1
E 4 1 1
E 5 2 1
E 5 4 1
E 6 3 1
E 6 4 1
E 6 5 1
E 7 1 1
E 7 4 1
E 8 2 1
E 8 5 1
E 8 7 1
E 9 3 1
E 9 6 1
E 9 7 1
E 9 8 1
E 10 1 1
E 11 2 1
E 11 10 1
E 12 3 1
E 12 10 1
E 12 11 1
E 13 4 1
E 13 10 1
E 14 5 1
E 14 11 1
E 14 13 1
E 15 6 1
E 15 12 1
E 15 13 1
E 15 14 1
E 16 7 1
E 16 10 1
E 16 13 1
E 17 8 1
E 17 11 1
E 17 14 1
E 17 16 1
E 18 9 1
E 18 12 1
E 18 15 1
E 18 16 1
E 18 17 1
E 19 1 1
E 19 10 1
E 20 2 1
E 20 11 1
E 20 19 1
E 21 3 1
E 21 12 1
E 21 19 1
E 21 20 1
E 22 4 1
E 22 13 1
E 22 19 1
E 23 5 1
E 23 14 1
E 23 20 1
E 23 22 1
E 24 6 1
E 24 15 1
E 24 21 1
E 24 22 1
E 24 23 1
E 25 7 1
E 25 16 1
E 25 19 1
E 25 22 1
E 26 8 1
E 26 17 1
E 26 20 1
E 26 23 1
E 26 25 1
E 27 9 1
E 27 18 1
E 27 21 1
E 27 24 1
E 27 25 1
E 27 26 1
E 28 1 1
E 29 2 1
E 29 28 1
E 30 3 1
E 30 28 1
E 30 29 1
E 31 4 1
E 31 28 1
E 32 5 1
E 32 29 1
E 32 31 1
E 33 6 1
E 33 30 1
E 33 31 1
E 33 32 1
E 34 7 1
E 34 28 1
E 34 31 1
E 35 8 1
E 35 29 1
E 35 32 1
E 35 34 1
E 36 9 1
E 36 30 1
E 36 33 1
E 36 34 1
E 36 35 1
E 37 10 1
E 37 28 1
E 38 11 1
E 38 29 1
E 38 37 1
E 39 12 1
E 39 30 1
E 39 37 1
E 39 38 1
E 40 13 1
E 40 31 1
E 40 37 1
E 41 14 1
E 41 32 1
E 41 38 1
E 41 40 1
E 42 15 1
E 42 33 1
E 42 39 1
E 42 40 1
E 42 41 1
E 43 16 1
E 43 34 1
E 43 37 1
E 43 40 1
E 44 17 1
E 44 35 1
E 44 38 1
E 44 41 1
E 44 43 1
E 45 18 1
E 45 36 1
E 45 39 1
E 45 42 1
E 45 43 1
E 45 44 1
E 46 19 1
E 46 28 1
E 46 37 1
E 47 20 1
E 47 29 1
E 47 38 1
E 47 46 1
E 48 21 1
E 48 30 1
E 48 39 1
E 48 46 1
E 48 47 1
E 49 22 1
E 49 31 1
E 49 40 1
E 49 46 1
E 50 23 1
E 50 32 1
E 50 41 1
E 50 47 1
E 50 49 1
E 51 24 1
E 51 33 1
E 51 42 1
E 51 48 1
E 51 49 1
E 51 50 1
E 52 25 1
E 52 34 1
E 52 43 1
E 52 46 1
E 52 49 1
E 53 26 1
E 53 35 1
E 53 44 1
E 53 47 1
E 53 50 1
E 53 52 1
E 54 27 1
E 54 36 1
E 54 45 1
E 54 48 1
E 54 51 1
E 54 52 1
E 54 53 1
E 55 1 1
E 55 28 1
E 56 2 1
E 56 29 1
E 56 55 1
E 57 3 1
E 57 30 1
E 57 55 1
E 57 56 1
E 58 4 1
E 58 31 1
E 58 55 1
E 59 5 1
E 59 32 1
E 59 56 1
E 59 58 1
E 60 6 1
E 60 33 1
E 60 57 1
E 60 58 1
E 60 59 1
E 61 7 1
E 61 34 1
E 61 55 1
E 61 58 1
E 62 8 1
E 62 35 1
E 62 56 1
E 62 59 1
E 62 61 1
E 63 9 1
E 63 36 1
E 63 57 1
E 63 60 1
E 63 61 1
E 63 62 1
E 64 10 1
E 64 37 1
E 64 55 1
E 65 11 1
E 65 38 1
E 65 56 1
E 65 64 1
E 66 12 1
E 66 39 1
E 66 57 1
E 66 64 1
E 66 65 1
E 67 13 1
E 67 40 1
E 67 58 1
E 67 64 1
E 68 14 1
E 68 41 1
E 68 59 1
E 68 65 1
E 68 67 1
E 69 15 1
E 69 42 1
E 69 60 1
E 69 66 1
E 69 67 1
E 69 68 1
E 70 16 1
E 70 43 1
E 70 61 1
E 70 64 1
E 70 67 1
E 71 17 1
E 71 44 1
E 71 62 1
E 71 65 1
E 71 68 1
E 71 70 1
E 72 18 1
E 72 45 1
E 72 63 1
E 72 66 1
E 72 69 1
E 72 70 1
E 72 71 1
E 73 19 1
E 73 46 1
E 73 55 1
E 73 64 1
E 74 20 1
E 74 47 1
E 74 56 1
E 74 65 1
E 74 73 1
E 75 21 1
E 75 48 1
E 75 57 1
E 75 66 1
E 75 73 1
E 75 74 1
E 76 22 1
E 76 49 1
E 76 58 1
E 76 67 1
E 76 73 1
E 77 23 1
E 77 50 1
E 77 59 1
E 77 68 1
E 77 74 1
E 77 76 1
E 78 24 1
E 78 51 1
E 78 60 1
E 78 69 1
E 78 75 1
E 78 76 1
E 78 77 1
E 79 25 1
E 79 52 1
E 79 61 1
E 79 70 1
E 79 73 1
E 79 76 1
E 80 26 1
E 80 53 1
E 80 62 1
E 80 71 1
E 80 74 1
E 80 77 1
E 80 79 1
E 81 27 1
E 81 54 1
E 81 63 1
E 81 72 1
E 81 75 1
E 81 78 1
E 81 79 1
E 81 80 1
E 82 1 1
E 83 2 1
E 83 82 1
E 84 3 1
E 84 82 1
E 84 83 1
E 85 4 1
E 85 82 1
E 86 5 1
E 86 83 1
E 86 85 1
E 87 6 1
E 87 84 1
E 87 85 1
E 87 86 1
E 88 7 1
E 88 82 1
E 88 85 1
E 89 8 1
E 89 83 1
E 89 86 1
E 89 88 1
E 90 9 1
E 90 84 1
E 90 87 1
E 90 88 1
E 90 89 1
E 91 10 1
E 91 82 1
E 92 11 1
E 92 83 1
E 92 91 1
E 93 12 1
E 93 84 1
E 93 91 1
E 93 92 1
E 94 13 1
E 94 85 1
E 94 91 1
E 95 14 1
E 95 86 1
E 95 92 1
E 95 94 1
E 96 15 1
E 96 87 1
E 96 93 1
E 96 94 1
E 96 95 1
E 97 16 1
E 97 88 1
E 97 91 1
E 97 94 1
E 98 17 1
E 98 89 1
E 98 92 1
E 98 95 1
E 98 97 1
E 99 18 1
E 99 90 1
E 99 93 1
E 99 96 1
E 99 97 1
E 99 98 1
E 100 19 1
E 100 82 1
E 100 91 1
E 101 20 1
E 101 83 1
E 101 92 1
E 101 100 1
E 102 21 1
E 102 84 1
E 102 93 1
E 102 100 1
E 102 101 1
E 103 22 1
E 103 85 1
E 103 94 1
E 103 100 1
E 104 23 1
E 104 86 1
E 104 95 1
E 104 101 1
E 104 103 1
E 105 24 1
E 105 87 1
E 105 96 1
E 105 102 1
E 105 103 1
E 105 104 1
E 106 25 1
E 106 88 1
E 106 97 1
E 106 100 1
E 106 103 1
E 107 26 1
E 107 89 1
E 107 98 1
E 107 101 1
E 107 104 1
E 107 106 1
E 108 27 1
E 108 90 1
E 108 99 1
E 108 102 1
E 108 105 1
E 108 106 1
E 108 107 1
E 109 28 1
E 109 82 1
E 110 29 1
E 110 83 1
E 110 109 1
E 111 30 1
E 111 84 1
E 111 109 1
E 111 110 1
E 112 31 1
E 112 85 1
E 112 109 1
E 113 32 1
E 113 86 1
E 113 110 1
E 113 112 1
E 114 33 1
E 114 87 1
E 114 111 1
E 114 112 1
E 114 113 1
E 115 34 1
E 115 88 1
E 115 109 1
E 115 112 1
E 116 35 1
E 116 89 1
E 116 110 1
E 116 113 1
E 116 115 1
E 117 36 1
E 117 90 1
E 117 111 1
E 117 114 1
E 117 115 1
E 117 116 1
E 118 37 1
E 118 91 1
E 118 109 1
E 119 38 1
E 119 92 1
E 119 110 1
E 119 118 1
E 120 39 1
E 120 93 1
E 120 111 1
E 120 118 1
E 120 119 1
E 121 40 1
E 121 94 1
E 121 112 1
E 121 118 1
E 122 41 1
E 122 95 1
E 122 113 1
E 122 119 1
E 122 121 1
E 123 42 1
E 123 96 1
E 123 114 1
E 123 120 1
E 123 121 1
E 123 122 1
E 124 43 1
E 124 97 1
E 124 115 1
E 124 118 1
E 124 121 1
E 125 44 1
E 125 98 1
E 125 116 1
E 125 119 1
E 125 122 1
E 125 124 1
E 126 45 1
E 126 99 1
E 126 117 1
E 126 120 1
E 126 123 1
E 126 124 1
E 126 125 1
E 127 46 1
E 127 100 1
E 127 109 1
E 127 118 1
E 128 47 1
E 128 101 1
E 128 110 1
E 128 119 1
E 128 127 1
E 129 48 1
E 129 102 1
E 129 111 1
E 129 120 1
E 129 127 1
E 129 128 1
E 130 49 1
E 130 103 1
E 130 112 1
E 130 121 1
E 130 127 1
E 131 50 1
E 131 104 1
E 131 113 1
E 131 122 1
E 131 128 1
E 131 130 1
E 132 51 1
E 132 105 1
E 132 114 1
E 132 123 1
E 132 129 1
E 132 130 1
E 132 131 1
E 133 52 1
E 133 106 1
E 133 115 1
E 133 124 1
E 133 127 1
E 133 130 1
E 134 53 1
E 134 107 1
E 134 116 1
E 134 125 1
E 134 128 1
E 134 131 1
E 134 133 1
E 135 54 1
E 135 108 1
E 135 117 1
E 135 126 1
E 135 129 1
E 135 132 1
E 135 133 1
E 135 134 1
E 136 55 1
E 136 82 1
E 136 109 1
E 137 56 1
E 137 83 1
E 137 110 1
E 137 136 1
E 138 57 1
E 138 84 1
E 138 111 1
E 138 136 1
E 138 137 1
E 139 58 1
E 139 85 1
E 139 112 1
E 139 136 1
E 140 59 1
E 140 86 1
E 140 113 1
E 140 137 1
E 140 139 1
E 141 60 1
E 141 87 1
E 141 114 1
E 141 138 1
E 141 139 1
E 141 140 1
E 142 61 1
E 142 88 1
E 142 115 1
E 142 136 1
E 142 139 1
E 143 62 1
E 143 89 1
E 143 116 1
E 143 137 1
E 143 140 1
E 143 142 1
E 144 63 1
E 144 90 1
E 144 117 1
E 144 138 1
E 144 141 1
E 144 142 1
E 144 143 1
E 145 64 1
E 145 91 1
E 145 118 1
E 145 136 1
E 146 65 1
E 146 92 1
E 146 119 1
E 146 137 1
E 146 145 1
E 147 66 1
E 147 93 1
E 147 120 1
E 147 138 1
E 147 145 1
E 147 146 1
E 148 67 1
E 148 94 1
E 148 121 1
E 148 139 1
E 148 145 1
E 149 68 1
E 149 95 1
E 149 122 1
E 149 140 1
E 149 146 1
E 149 148 1
E 150 69 1
E 150 96 1
E 150 123 1
E 150 141 1
E 150 147 1
E 150 148 1
E 150 149 1
E 151 70 1
E 151 97 1
E 151 124 1
E 151 142 1
E 151 145 1
E 151 148 1
E 152 71 1
E 152 98 1
E 152 125 1
E 152 143 1
E 152 146 1
E 152 149 1
E 152 151 1
E 153 72 1
E 153 99 1
E 153 126 1
E 153 144 1
E 153 147 1
E 153 150 1
E 153 151 1
E 153 152 1
E 154 73 1
E 154 100 1
E 154 127 1
E 154 136 1
E 154 145 1
E 155 74 1
E 155 101 1
E 155 128 1
E 155 137 1
E 155 146 1
E 155 154 1
E 156 75 1
E 156 102 1
E 156 129 1
E 156 138 1
E 156 147 1
E 156 154 1
E 156 155 1
E 157 76 1
E 157 103 1
E 157 130 1
E 157 139 1
E 157 148 1
E 157 154 1
E 158 77 1
E 158 104 1
E 158 131 1
E 158 140 1
E 158 149 1
E 158 155 1
E 158 157 1
E 159 78 1
E 159 105 1
E 159 132 1
E 159 141 1
E 159 150 1
E 159 156 1
E 159 157 1
E 159 158 1
E 160 79 1
E 160 106 1
E 160 133 1
E 160 142 1
E 160 151 1
E 160 154 1
E 160 157 1
E 161 80 1
E 161 107 1
E 161 134 1
E 161 143 1
E 161 152 1
E 161 155 1
E 161 158 1
E 161 160 1
E 162 81 1
E 162 108 1
E 162 135 1
E 162 144 1
E 162 153 1
E 162 156 1
E 162 159 1
E 162 160 1
E 162 161 1
E 163 1 1
E 163 82 1
E 164 2 1
E 164 83 1
E 164 163 1
E 165 3 1
E 165 84 1
E 165 163 1
E 165 164 1
E 166 4 1
E 166 85 1
E 166 163 1
E 167 5 1
E 167 86 1
E 167 164 1
E 167 166 1
E 168 6 1
E 168 87 1
E 168 165 1
E 168 166 1
E 168 167 1
E 169 7 1
E 169 88 1
E 169 163 1
E 169 166 1
E 170 8 1
E 170 89 1
E 170 164 1
E 170 167 1
E 170 169 1
E 171 9 1
E 171 90 1
E 171 165 1
E 171 168 1
E 171 169 1
E 171 170 1
E 172 10 1
E 172 91 1
E 172 163 1
E 173 11 1
E 173 92 1
E 173 164 1
E 173 172 1
E 174 12 1
E 174 93 1
E 174 165 1
E 174 172 1
E 174 173 1
E 175 13 1
E 175 94 1
E 175 166 1
E 175 172 1
E 176 14 1
E 176 95 1
E 176 167 1
E 176 173 1
E 176 175 1
E 177 15 1
E 177 96 1
E 177 168 1
E 177 174 1
E 177 175 1
E 177 176 1
E 178 16 1
E 178 97 1
E 178 169 1
E 178 172 1
E 178 175 1
E 179 17 1
E 179 98 1
E 179 170 1
E 179 173 1
E 179 176 1
E 179 178 1
E 180 18 1
E 180 99 1
E 180 171 1
E 180 174 1
E 180 177 1
E 180 178 1
E 180 179 1
E 181 19 1
E 181 100 1
E 181 163 1
E 181 172 1
E 182 20 1
E 182 101 1
E 182 164 1
E 182 173 1
E 182 181 1
E 183 21 1
E 183 102 1
E 183 165 1
E 183 174 1
E 183 181 1
E 183 182 1
E 184 22 1
E 184 103 1
E 184 166 1
E 184 175 1
E 184 181 1
E 185 23 1
E 185 104 1
E 185 167 1
E 185 176 1
E 185 182 1
E 185 184 1
E 186 24 1
E 186 105 1
E 186 168 1
E 186 177 1
E 186 183 1
E 186 184 1
E 186 185 1
E 187 25 1
E 187 106 1
E 187 169 1
E 187 178 1
E 187 181 1
E 187 184 1
E 188 26 1
E 188 107 1
E 188 170 1
E 188 179 1
E 188 182 1
E 188 185 1
E 188 187 1
E 189 27 1
E 189 108 1
E 189 171 1
E 189 180 1
E 189 183 1
E 189 186 1
E 189 187 1
E 189 188 1
E 190 28 1
E 190 109 1
E 190 163 1
E 191 29 1
E 191 110 1
E 191 164 1
E 191 190 1
E 192 30 1
E 192 111 1
E 192 165 1
E 192 190 1
E 192 191 1
E 193 31 1
E 193 112 1
E 193 166 1
E 193 190 1
E 194 32 1
E 194 113 1
E 194 167 1
E 194 191 1
E 194 193 1
E 195 33 1
E 195 114 1
E 195 168 1
E 195 192 1
E 195 193 1
E 195 194 1
E 196 34 1
E 196 115 1
E 196 169 1
E 196 190 1
E 196 193 1
E 197 35 1
E 197 116 1
E 197 170 1
E 197 191 1
E 197 194 1
E 197 196 1
E 198 36 1
E 198 117 1
E 198 171 1
E 198 192 1
E 198 195 1
E 198 196 1
E 198 197 1
E 199 37 1
E 199 118 1
E 199 172 1
E 199 190 1
E 200 38 1
E 200 119 1
E 200 173 1
E 200 191 1
E 200 199 1
E 201 39 1
E 201 120 1
E 201 174 1
E 201 192 1
E 201 199 1
E 201 200 1
E 202 40 1
E 202 121 1
E 202 175 1
E 202 193 1
E 202 199 1
E 203 41 1
E 203 122 1
E 203 176 1
E 203 194 1
E 203 200 1
E 203 202 1
E 204 42 1
E 204 123 1
E 204 177 1
E 204 195 1
E 204 201 1
E 204 202 1
E 204 203 1
E 205 43 1
E 205 124 1
E 205 178 1
E 205 196 1
E 205 199 1
E 205 202 1
E 206 44 1
E 206 125 1
E 206 179 1
E 206 197 1
E 206 200 1
E 206 203 1
E 206 205 1
E 207 45 1
E 207 126 1
E 207 180 1
E 207 198 1
E 207 201 1
E 207 204 1
E 207 205 1
E 207 206 1
E 208 46 1
E 208 127 1
E 208 181 1
E 208 190 1
E 208 199 1
E 209 47 1
E 209 128 1
E 209 182 1
E 209 191 1
E 209 200 1
E 209 208 1
E 210 48 1
E 210 129 1
E 210 183 1
E 210 192 1
E 210 201 1
E 210 208 1
E 210 209 1
E 211 49 1
E 211 130 1
E 211 184 1
E 211 193 1
E 211 202 1
E 211 208 1
E 212 50 1
E 212 131 1
E 212 185 1
E 212 194 1
E 212 203 1
E 212 209 1
E 212 211 1
E 213 51 1
E 213 132 1
E 213 186 1
E 213 195 1
E 213 204 1
E 213 210 1
E 213 211 1
E 213 212 1
E 214 52 1
E 214 133 1
E 214 187 1
E 214 196 1
E 214 205 1
E 214 208 1
E 214 211 1
E 215 53 1
E 215 134 1
E 215 188 1
E 215 197 1
E 215 206 1
E 215 209 1
E 215 212 1
E 215 214 1
E 216 54 1
E 216 135 1
E 216 189 1
E 216 198 1
E 216 207 1
E 216 210 1
E 216 213 1
E 216 214 1
E 216 215 1
E 217 55 1
E 217 136 1
E 217 163 1
E 217 190 1
E 218 56 1
E 218 137 1
E 218 164 1
E 218 191 1
E 218 217 1
E 219 57 1
E 219 138 1
E 219 165 1
E 219 192 1
E 219 217 1
E 219 218 1
E 220 58 1
E 220 139 1
E 220 166 1
E 220 193 1
E 220 217 1
E 221 59 1
E 221 140 1
E 221 167 1
E 221 194 1
E 221 218 1
E 221 220 1
E 222 60 1
E 222 141 1
E 222 168 1
E 222 195 1
E 222 219 1
E 222 220 1
E 222 221 1
E 223 61 1
E 223 142 1
E 223 169 1
E 223 196 1
E 223 217 1
E 223 220 1
E 224 62 1
E 224 143 1
E 224 170 1
E 224 197 1
E 224 218 1
E 224 221 1
E 224 223 1
E 225 63 1
E 225 144 1
E 225 171 1
E 225 198 1
E 225 219 1
E 225 222 1
E 225 223 1
E 225 224 1
E 226 64 1
E 226 145 1
E 226 172 1
E 226 199 1
E 226 217 1
E 227 65 1
E 227 146 1
E 227 173 1
E 227 200 1
E 227 218 1
E 227 226 1
E 228 66 1
E 228 147 1
E 228 174 1
E 228 201 1
E 228 219 1
E 228 226 1
E 228 227 1
E 229 67 1
E 229 148 1
E 229 175 1
E 229 202 1
E 229 220 1
E 229 226 1
E 230 68 1
E 230 149 1
E 230 176 1
E 230 203 1
E 230 221 1
E 230 227 1
E 230 229 1
E 231 69 1
E 231 150 1
E 231 177 1
E 231 204 1
E 231 222 1
E 231 228 1
E 231 229 1
E 231 230 1
E 232 70 1
E 232 151 1
E 232 178 1
E 232 205 1
E 232 223 1
E 232 226 1
E 232 229 1
E 233 71 1
E 233 152 1
E 233 179 1
E 233 206 1
E 233 224 1
E 233 227 1
E 233 230 1
E 233 232 1
E 234 72 1
E 234 153 1
E 234 180 1
E 234 207 1
E 234 225 1
E 234 228 1
E 234 231 1
E 234 232 1
E 234 233 1
E 235 73 1
E 235 154 1
E 235 181 1
E 235 208 1
E 235 217 1
E 235 226 1
E 236 74 1
E 236 155 1
E 236 182 1
E 236 209 1
E 236 218 1
E 236 227 1
E 236 235 1
E 237 75 1
E 237 156 1
E 237 183 1
E 237 210 1
E 237 219 1
E 237 228 1
E 237 235 1
E 237 236 1
E 238 76 1
E 238 157 1
E 238 184 1
E 238 211 1
E 238 220 1
E 238 229 1
E 238 235 1
E 239 77 1
E 239 158 1
E 239 185 1
E 239 212 1
E 239 221 1
E 239 230 1
E 239 236 1
E 239 238 1
E 240 78 1
E 240 159 1
E 240 186 1
E 240 213 1
E 240 222 1
E 240 231 1
E 240 237 1
E 240 238 1
E 240 239 1
E 241 79 1
E 241 160 1
E 241 187 1
E 241 214 1
E 241 223 1
E 241 232 1
E 241 235 1
E 241 238 1
E 242 80 1
E 242 161 1
E 242 188 1
E 242 215 1
E 242 224 1
E 242 233 1
E 242 236 1
E 242 239 1
E 242 241 1
E 243 81 1
E 243 162 1
E 243 189 1
E 243 216 1
E 243 225 1
E 243 234 1
E 243 237 1
E 243 240 1
E 243 241 1
E 243 242 1
END

SECTION Terminals
Terminals 27
TP 1 2
TP 15 1
TP 26 1
TP 33 2
TP 44 1
TP 46 2
TP 60 1
TP 65 1
TP 79 2
TP 90 1
TP 92 1
TP 103 2
TP 110 2
TP 121 1
TP 135 2
TP 136 2
TP 153 1
TP 158 1
TP 167 2
TP 178 1
TP 183 2
TP 196 2
TP 201 1
TP 212 1
TP 224 2
TP 229 2
TP 237 1
END

EOF
